
--- Run: 2026-05-30 21:29:28.882286 ---
[INFO] Optional file not found, skipping: main.lp
[INFO] Optional file not found, skipping: solve.lp
[INFO] Optional file not found, skipping: show.lp
[INFO] Running 7 files:
  and.lp
  input.lp
  not.lp
  or.lp
  output.lp
  xor.lp
  preview.lp

clingo version 5.8.0
Reading from ...al_networks_editor/C-MCPN/gates/and.lp ...
UNKNOWN

Models       : 0+
Calls        : 1
Time         : 0.001s (Solving: 0.00s 1st Model: 0.00s Unsat: 0.00s)
CPU Time     : 0.001s

--- Run: 2026-05-30 21:43:55.756690 ---
[INFO] Optional file not found, skipping: main.lp
[INFO] Optional file not found, skipping: solve.lp
[INFO] Optional file not found, skipping: show.lp
[INFO] Running 7 files:
  and.lp
  input.lp
  not.lp
  or.lp
  output.lp
  xor.lp
  preview.lp

clingo version 5.8.0
Reading from ...al_networks_editor/C-MCPN/gates/and.lp ...
UNKNOWN

Models       : 0+
Calls        : 1
Time         : 0.002s (Solving: 0.00s 1st Model: 0.00s Unsat: 0.00s)
CPU Time     : 0.001s

--- Run: 2026-05-30 21:44:07.099296 ---
[INFO] Optional file not found, skipping: main.lp
[INFO] Optional file not found, skipping: solve.lp
[INFO] Optional file not found, skipping: show.lp
[INFO] Running 7 files:
  and.lp
  input.lp
  not.lp
  or.lp
  output.lp
  xor.lp
  preview.lp

clingo version 5.8.0
Reading from ...al_networks_editor/C-MCPN/gates/and.lp ...
UNKNOWN

Models       : 0+
Calls        : 1
Time         : 0.001s (Solving: 0.00s 1st Model: 0.00s Unsat: 0.00s)
CPU Time     : 0.001s

--- Run: 2026-05-30 23:24:42.906108 ---
[INFO] Optional file not found, skipping: main.lp
[INFO] Optional file not found, skipping: solve.lp
[INFO] Optional file not found, skipping: show.lp
[INFO] Running 7 files:
  and.lp
  input.lp
  not.lp
  or.lp
  output.lp
  xor.lp
  preview.lp

clingo version 5.8.0
Reading from ...al_networks_editor/C-MCPN/gates/and.lp ...
UNKNOWN

Models       : 0+
Calls        : 1
Time         : 0.002s (Solving: 0.00s 1st Model: 0.00s Unsat: 0.00s)
CPU Time     : 0.001s

--- Run: 2026-05-31 12:38:54.983572 ---
[INFO] Optional file not found, skipping: main.lp
[INFO] Optional file not found, skipping: solve.lp
[INFO] Optional file not found, skipping: show.lp
[INFO] Running 8 files:
  and.lp
  input.lp
  nand.lp
  not.lp
  or.lp
  output.lp
  xor.lp
  preview.lp

clingo version 5.8.0
Reading from ...al_networks_editor/C-MCPN/gates/and.lp ...
UNKNOWN

Models       : 0+
Calls        : 1
Time         : 0.005s (Solving: 0.00s 1st Model: 0.00s Unsat: 0.00s)
CPU Time     : 0.001s

--- Run: 2026-05-31 12:45:36.235636 ---
[INFO] Optional file not found, skipping: main.lp
[INFO] Optional file not found, skipping: solve.lp
[INFO] Optional file not found, skipping: show.lp
[INFO] Running 8 files: and.lp input.lp nand.lp not.lp or.lp output.lp xor.lp preview.lp

clingo version 5.8.0
Reading from ...al_networks_editor/C-MCPN/gates/and.lp ...
UNKNOWN

Models       : 0+
Calls        : 1
Time         : 0.004s (Solving: 0.00s 1st Model: 0.00s Unsat: 0.00s)
CPU Time     : 0.001s

--- Run: 2026-05-31 12:47:01.713482 ---
[INFO] Optional file not found, skipping: main.lp
[INFO] Optional file not found, skipping: solve.lp
[INFO] Optional file not found, skipping: show.lp
[INFO] Running 8 files: and.lp input.lp nand.lp not.lp or.lp output.lp xor.lp preview.lp

clingo version 5.8.0
Reading from ...al_networks_editor/C-MCPN/gates/and.lp ...
UNKNOWN

Models       : 0+
Calls        : 1
Time         : 0.004s (Solving: 0.00s 1st Model: 0.00s Unsat: 0.00s)
CPU Time     : 0.001s

--- Run: 2026-05-31 12:47:09.245224 ---
[INFO] Optional file not found, skipping: main.lp
[INFO] Optional file not found, skipping: solve.lp
[INFO] Optional file not found, skipping: show.lp
[INFO] Running 8 files: and.lp input.lp nand.lp not.lp or.lp output.lp xor.lp preview.lp

clingo version 5.8.0
Reading from ...al_networks_editor/C-MCPN/gates/and.lp ...
UNKNOWN

Models       : 0+
Calls        : 1
Time         : 0.001s (Solving: 0.00s 1st Model: 0.00s Unsat: 0.00s)
CPU Time     : 0.001s

--- Run: 2026-05-31 12:47:09.790796 ---
[INFO] Optional file not found, skipping: main.lp
[INFO] Optional file not found, skipping: solve.lp
[INFO] Optional file not found, skipping: show.lp
[INFO] Running 8 files: and.lp input.lp nand.lp not.lp or.lp output.lp xor.lp preview.lp

clingo version 5.8.0
Reading from ...al_networks_editor/C-MCPN/gates/and.lp ...
UNKNOWN

Models       : 0+
Calls        : 1
Time         : 0.001s (Solving: 0.00s 1st Model: 0.00s Unsat: 0.00s)
CPU Time     : 0.001s

--- Run: 2026-05-31 12:48:38.735878 ---
[INFO] Optional file not found, skipping: main.lp
[INFO] Optional file not found, skipping: solve.lp
[INFO] Optional file not found, skipping: show.lp
[INFO] Running 8 files: and.lp input.lp nand.lp not.lp or.lp output.lp xor.lp preview.lp

clingo version 5.8.0
Reading from ...al_networks_editor/C-MCPN/gates/and.lp ...
UNKNOWN

Models       : 0+
Calls        : 1
Time         : 0.003s (Solving: 0.00s 1st Model: 0.00s Unsat: 0.00s)
CPU Time     : 0.002s

--- Run: 2026-05-31 12:48:52.363483 ---
[INFO] Optional file not found, skipping: main.lp
[INFO] Optional file not found, skipping: solve.lp
[INFO] Optional file not found, skipping: show.lp
[INFO] Running 8 files: and.lp input.lp nand.lp not.lp or.lp output.lp xor.lp preview.lp

clingo version 5.8.0
Reading from ...al_networks_editor/C-MCPN/gates/and.lp ...
UNKNOWN

Models       : 0+
Calls        : 1
Time         : 0.004s (Solving: 0.00s 1st Model: 0.00s Unsat: 0.00s)
CPU Time     : 0.001s

--- Run: 2026-05-31 12:55:42.013543 ---
[INFO] Optional file not found, skipping: main.lp
[INFO] Optional file not found, skipping: solve.lp
[INFO] Optional file not found, skipping: show.lp
[INFO] Running 8 files: and.lp input.lp nand.lp not.lp or.lp output.lp xor.lp preview.lp

clingo version 5.8.0
Reading from ...al_networks_editor/C-MCPN/gates/and.lp ...
UNKNOWN

Models       : 0+
Calls        : 1
Time         : 0.002s (Solving: 0.00s 1st Model: 0.00s Unsat: 0.00s)
CPU Time     : 0.001s

--- Run: 2026-05-31 12:55:54.873771 ---
[INFO] Optional file not found, skipping: main.lp
[INFO] Optional file not found, skipping: solve.lp
[INFO] Optional file not found, skipping: show.lp
[INFO] Running 8 files: and.lp input.lp nand.lp not.lp or.lp output.lp xor.lp preview.lp

clingo version 5.8.0
Reading from ...al_networks_editor/C-MCPN/gates/and.lp ...
UNKNOWN

Models       : 0+
Calls        : 1
Time         : 0.003s (Solving: 0.00s 1st Model: 0.00s Unsat: 0.00s)
CPU Time     : 0.001s

--- Run: 2026-05-31 12:56:55.526297 ---
[INFO] Optional file not found, skipping: main.lp
[INFO] Optional file not found, skipping: solve.lp
[INFO] Optional file not found, skipping: show.lp
[INFO] Running 8 files: and.lp input.lp nand.lp not.lp or.lp output.lp xor.lp preview.lp

clingo version 5.8.0
Reading from ...al_networks_editor/C-MCPN/gates/and.lp ...
UNKNOWN

Models       : 0+
Calls        : 1
Time         : 0.002s (Solving: 0.00s 1st Model: 0.00s Unsat: 0.00s)
CPU Time     : 0.001s

--- Run: 2026-05-31 12:57:32.182690 ---
[INFO] Optional file not found, skipping: main.lp
[INFO] Optional file not found, skipping: solve.lp
[INFO] Optional file not found, skipping: show.lp
[INFO] Running 8 files: and.lp input.lp nand.lp not.lp or.lp output.lp xor.lp preview.lp

clingo version 5.8.0
Reading from ...al_networks_editor/C-MCPN/gates/and.lp ...
UNKNOWN

Models       : 0+
Calls        : 1
Time         : 0.003s (Solving: 0.00s 1st Model: 0.00s Unsat: 0.00s)
CPU Time     : 0.001s

--- Run: 2026-05-31 13:02:18.769615 ---
[INFO] Optional file not found, skipping: main.lp
[INFO] Optional file not found, skipping: solve.lp
[INFO] Optional file not found, skipping: show.lp
[INFO] Running 8 files: and.lp input.lp nand.lp not.lp or.lp output.lp xor.lp preview.lp

clingo version 5.8.0
Reading from ...al_networks_editor/C-MCPN/gates/and.lp ...
UNKNOWN

Models       : 0+
Calls        : 1
Time         : 0.002s (Solving: 0.00s 1st Model: 0.00s Unsat: 0.00s)
CPU Time     : 0.001s

--- Run: 2026-05-31 13:07:23.816008 ---
[INFO] Optional file not found, skipping: main.lp
[INFO] Optional file not found, skipping: solve.lp
[INFO] Optional file not found, skipping: show.lp
[INFO] Running 8 files: and.lp input.lp nand.lp not.lp or.lp output.lp xor.lp preview.lp

clingo version 5.8.0
Reading from ...al_networks_editor/C-MCPN/gates/and.lp ...
UNKNOWN

Models       : 0+
Calls        : 1
Time         : 0.003s (Solving: 0.00s 1st Model: 0.00s Unsat: 0.00s)
CPU Time     : 0.001s

--- Run: 2026-05-31 16:57:13.125176 ---
[INFO] Optional file not found, skipping: main.lp
[INFO] Optional file not found, skipping: solve.lp
[INFO] Optional file not found, skipping: show.lp
[INFO] Running 8 files: and.lp input.lp nand.lp not.lp or.lp output.lp xor.lp preview.lp

clingo version 5.8.0
Reading from ...al_networks_editor/C-MCPN/gates/and.lp ...
UNKNOWN

Models       : 0+
Calls        : 1
Time         : 0.003s (Solving: 0.00s 1st Model: 0.00s Unsat: 0.00s)
CPU Time     : 0.001s

--- Run: 2026-05-31 17:06:21.145663 ---
[INFO] Running 9 files: and.lp input.lp nand.lp not.lp or.lp output.lp xor.lp main.lp preview.lp

clingo version 5.8.0
Reading from ...al_networks_editor/C-MCPN/gates/and.lp ...
UNKNOWN

Models       : 0+
Calls        : 1
Time         : 0.006s (Solving: 0.00s 1st Model: 0.00s Unsat: 0.00s)
CPU Time     : 0.002s

--- Run: 2026-05-31 17:13:46.595509 ---
[INFO] Running 9 files: and.lp input.lp nand.lp not.lp or.lp output.lp xor.lp main.lp preview.lp

clingo version 5.8.0
Reading from ...al_networks_editor/C-MCPN/gates/and.lp ...
UNKNOWN

Models       : 0+
Calls        : 1
Time         : 0.006s (Solving: 0.00s 1st Model: 0.00s Unsat: 0.00s)
CPU Time     : 0.003s

--- Run: 2026-05-31 17:24:04.267956 ---
[INFO] Running 7 files: and.lp input.lp or.lp output.lp xor.lp main.lp preview.lp

clingo version 5.8.0
Reading from ...al_networks_editor/C-MCPN/gates/and.lp ...
UNKNOWN

Models       : 0+
Calls        : 1
Time         : 0.004s (Solving: 0.00s 1st Model: 0.00s Unsat: 0.00s)
CPU Time     : 0.001s
